(declare-const X String)
; \x2Easpxdata\.warezclient\.comWinCrashrunningUser-Agent\x3Awowokay
(assert (str.in_re X (str.to_re ".aspxdata.warezclient.comWinCrashrunningUser-Agent:wowokay\u{a}")))
(check-sat)

(exit)
